N 10 C 100

GEN 0
FIT_MEAN 234.9
1 1 1 1 0 1 1 0 0 1 282 
0 1 1 0 1 1 1 0 0 1 298 
1 0 1 0 1 0 0 0 1 1 265 
0 0 0 1 1 0 0 1 0 1 221 
0 0 1 0 0 1 0 1 1 1 285 
0 1 0 1 1 0 0 0 1 0 136 
1 1 1 0 0 1 0 0 1 0 261 
1 0 0 0 1 0 1 0 0 0 172 
0 1 1 1 1 0 0 0 0 0 176 
1 0 1 1 1 0 0 0 0 1 253 

GEN 1
FIT_MEAN 287.7
0 1 1 0 1 1 1 0 0 1 298 
0 0 1 0 0 1 0 1 1 1 285 
1 1 1 1 0 1 1 0 0 1 282 
0 1 1 0 1 1 0 1 1 1 405 
1 1 1 1 0 1 1 0 0 1 282 
0 1 1 0 1 1 0 1 1 1 405 
0 0 1 0 0 1 1 0 0 1 178 
1 1 1 1 0 1 1 0 0 1 282 
0 0 1 0 0 1 1 0 0 1 178 
1 1 1 1 0 1 1 0 0 1 282 

GEN 2
FIT_MEAN 300
0 1 1 0 1 1 0 1 1 1 405 
0 1 1 0 1 1 0 1 1 1 405 
0 1 1 0 1 1 1 0 0 1 298 
0 1 1 0 1 1 0 1 1 1 405 
1 1 1 1 0 1 1 0 0 1 282 
0 1 1 0 1 1 0 1 1 1 405 
0 0 1 0 0 1 1 0 0 1 178 
1 1 1 1 0 1 1 0 0 0 253 
0 0 1 0 0 1 1 0 0 1 178 
1 1 1 1 0 0 1 0 0 1 191 

GEN 3
FIT_MEAN 320
0 1 1 0 1 1 0 1 1 1 405 
0 1 1 0 1 1 0 1 1 1 405 
0 1 1 0 1 1 0 1 1 1 405 
0 1 1 0 1 1 0 1 1 1 405 
1 1 1 1 0 1 1 0 0 1 282 
0 1 1 0 1 1 0 1 1 1 405 
0 0 1 0 0 1 1 0 0 1 178 
1 1 1 1 0 1 1 0 0 0 253 
0 0 1 0 1 1 1 0 0 1 271 
1 1 1 1 0 0 1 0 0 1 191 

GEN 4
FIT_MEAN 320
0 1 1 0 1 1 0 1 1 1 405 
0 1 1 0 1 1 0 1 1 1 405 
0 1 1 0 1 1 0 1 1 1 405 
0 1 1 0 1 1 0 1 1 1 405 
1 1 1 1 0 1 1 0 0 1 282 
0 1 1 0 1 1 0 1 1 1 405 
0 0 1 0 0 1 1 0 0 1 178 
1 1 1 1 0 1 1 0 0 0 253 
0 0 1 0 1 1 1 0 0 1 271 
1 1 1 1 0 0 1 0 0 1 191 

GEN 5
FIT_MEAN 320.4
0 1 1 0 1 1 0 1 1 1 405 
0 1 1 0 1 1 0 1 1 1 405 
0 1 1 0 1 1 0 1 1 1 405 
0 1 1 0 1 1 1 1 1 1 409 
1 1 1 1 0 1 1 0 0 1 282 
0 1 1 0 1 1 0 1 1 1 405 
0 0 1 0 0 1 1 0 0 1 178 
1 1 1 1 0 1 1 0 0 0 253 
0 0 1 0 1 1 1 0 0 1 271 
1 1 1 1 0 0 1 0 0 1 191 

GEN 6
FIT_MEAN 310
0 1 1 0 1 1 1 1 1 1 409 
0 1 1 0 1 1 0 1 1 1 405 
0 1 1 0 1 1 0 1 1 1 405 
0 1 1 0 1 1 1 1 1 1 409 
1 1 1 1 0 1 1 0 0 1 282 
0 1 0 0 1 1 0 1 1 1 351 
0 0 1 0 0 1 1 0 0 1 178 
1 1 1 1 0 1 1 0 0 0 253 
0 0 0 0 1 1 1 0 0 1 217 
1 1 1 1 0 0 1 0 0 1 191 

GEN 7
FIT_MEAN 307.7
0 1 1 0 1 1 1 1 1 1 409 
0 1 1 0 1 1 1 1 1 1 409 
0 1 1 0 1 1 0 1 1 1 405 
0 1 1 0 1 1 1 1 1 1 409 
1 1 1 1 0 1 1 0 0 1 282 
0 1 0 0 1 1 0 1 1 1 351 
0 0 1 0 0 1 1 0 0 1 178 
1 1 1 1 0 1 1 0 0 0 253 
0 0 0 0 1 1 1 0 0 1 217 
1 0 1 1 0 0 1 0 0 1 164 

GEN 8
FIT_MEAN 297.3
0 1 1 0 1 1 1 1 1 1 409 
0 1 1 0 1 1 1 1 1 1 409 
0 1 1 0 1 1 1 1 1 1 409 
0 1 1 0 1 1 1 1 1 0 380 
0 1 1 1 0 1 1 0 0 1 207 
0 1 0 0 1 1 0 1 1 1 351 
0 0 1 0 0 1 1 0 0 1 178 
1 1 1 1 0 1 0 0 0 0 249 
0 0 0 0 1 1 1 0 0 1 217 
1 0 1 1 0 0 1 0 0 1 164 

GEN 9
FIT_MEAN 305
0 1 1 0 1 1 1 1 1 1 409 
0 1 1 0 1 1 1 1 1 1 409 
0 1 1 0 1 1 1 1 1 1 409 
0 1 1 0 1 1 1 1 1 0 380 
1 1 1 1 0 1 1 0 0 1 282 
0 1 0 0 1 1 0 1 1 1 351 
0 0 1 0 0 1 1 0 0 1 178 
1 1 1 1 0 1 0 0 0 0 249 
0 0 0 1 1 1 1 0 0 1 219 
1 0 1 1 0 0 1 0 0 1 164 

GEN 10
FIT_MEAN 305
0 1 1 0 1 1 1 1 1 1 409 
0 1 1 0 1 1 1 1 1 1 409 
0 1 1 0 1 1 1 1 1 1 409 
0 1 1 0 1 1 1 1 1 0 380 
1 1 1 1 0 1 1 0 0 1 282 
0 1 0 0 1 1 0 1 1 1 351 
0 0 1 0 0 1 1 0 0 1 178 
1 1 1 1 0 1 0 0 0 0 249 
0 0 0 1 1 1 1 0 0 1 219 
1 0 1 1 0 0 1 0 0 1 164 

GEN 11
FIT_MEAN 299.4
0 1 1 0 1 1 1 1 1 1 409 
0 1 1 0 1 1 1 1 1 1 409 
0 1 1 0 1 1 1 1 1 1 409 
0 1 1 0 1 1 1 1 1 0 380 
1 1 1 1 0 1 1 0 0 0 253 
0 1 0 1 1 1 0 1 1 1 353 
0 0 1 0 0 1 1 0 0 0 149 
1 1 1 1 0 1 0 0 0 0 249 
0 0 0 1 1 1 1 0 0 1 219 
1 0 1 1 0 0 1 0 0 1 164 

GEN 12
FIT_MEAN 294.2
0 1 1 0 1 1 1 1 1 1 409 
0 1 1 0 1 1 1 1 1 1 409 
0 1 1 0 1 1 1 1 1 1 409 
0 1 1 0 1 1 1 1 1 0 380 
1 1 0 1 0 1 1 0 0 0 199 
0 1 0 1 1 1 0 1 1 1 353 
0 0 1 0 0 0 1 0 0 0 58 
1 1 1 1 1 1 0 0 0 0 342 
0 0 0 1 1 1 1 0 0 1 219 
1 0 1 1 0 0 1 0 0 1 164 

GEN 13
FIT_MEAN 283.8
0 1 1 0 1 1 1 1 1 1 409 
0 1 1 0 1 1 1 1 1 1 409 
0 1 1 0 1 1 1 1 1 1 409 
0 1 1 0 1 1 1 1 1 0 380 
0 1 0 1 0 1 1 0 0 0 124 
0 1 0 1 1 1 0 1 1 1 353 
0 0 1 0 0 0 1 0 0 0 58 
1 1 1 1 1 1 0 0 0 0 342 
0 0 0 1 1 1 1 0 0 1 219 
1 0 1 1 0 0 1 0 0 0 135 

GEN 14
FIT_MEAN 289.2
0 1 1 0 1 1 1 1 1 1 409 
0 1 1 0 1 1 1 1 1 1 409 
0 1 1 0 1 1 1 1 1 1 409 
0 1 1 0 1 1 1 1 1 0 380 
0 1 0 1 0 1 1 0 0 0 124 
0 1 1 1 1 1 0 1 1 1 407 
0 0 1 0 0 0 1 0 0 0 58 
1 1 1 1 1 1 0 0 0 0 342 
0 0 0 1 1 1 1 0 0 1 219 
1 0 1 1 0 0 1 0 0 0 135 

GEN 15
FIT_MEAN 289
0 1 1 0 1 1 1 1 1 1 409 
0 1 1 0 1 1 1 1 1 1 409 
0 1 1 0 1 1 1 1 1 1 409 
0 1 1 0 1 1 1 1 1 0 380 
0 1 0 1 0 1 1 0 0 0 124 
0 1 1 1 1 1 0 1 1 1 407 
0 0 1 0 0 0 1 0 0 0 58 
1 1 1 1 1 1 0 0 0 0 342 
0 0 0 0 1 1 1 0 0 1 217 
1 0 1 1 0 0 1 0 0 0 135 

GEN 16
FIT_MEAN 289.6
0 1 1 0 1 1 1 1 1 1 409 
0 1 1 0 1 1 1 1 1 1 409 
0 1 1 0 1 1 1 1 1 1 409 
0 1 1 0 1 1 1 1 1 0 380 
0 1 0 1 0 1 1 1 0 0 221 
0 1 1 1 1 1 0 1 1 1 407 
0 0 1 0 0 0 1 0 0 0 58 
1 1 1 1 1 1 0 0 0 0 342 
0 0 0 0 1 0 1 0 0 1 126 
1 0 1 1 0 0 1 0 0 0 135 

GEN 17
FIT_MEAN 279.9
0 1 1 0 1 1 1 1 1 1 409 
0 1 1 0 1 1 1 1 1 1 409 
0 1 1 0 1 1 1 1 1 1 409 
0 1 1 0 1 1 1 1 1 0 380 
0 1 0 1 0 1 1 1 0 0 221 
0 1 1 1 1 1 0 0 1 1 310 
0 0 1 0 0 0 1 0 0 0 58 
1 1 1 1 1 1 0 0 0 0 342 
0 0 0 0 1 0 1 0 0 1 126 
1 0 1 1 0 0 1 0 0 0 135 

GEN 18
FIT_MEAN 280.3
0 1 1 0 1 1 1 1 1 1 409 
0 1 1 0 1 1 1 1 1 1 409 
0 1 1 0 1 1 1 1 1 1 409 
0 1 1 0 1 1 1 1 1 0 380 
0 1 0 1 0 1 1 1 0 0 221 
0 1 1 1 1 1 0 0 1 1 310 
0 0 1 0 0 0 1 0 0 0 58 
1 1 1 1 0 1 0 0 0 0 249 
0 0 0 0 1 0 1 1 0 1 223 
1 0 1 1 0 0 1 0 0 0 135 

GEN 19
FIT_MEAN 279
0 1 1 0 1 1 1 1 1 1 409 
0 1 1 0 1 1 1 1 1 1 409 
0 1 1 0 1 1 1 1 1 1 409 
0 1 1 0 1 1 1 1 1 0 380 
0 1 0 1 0 1 1 1 0 0 221 
0 1 1 1 1 1 0 0 1 1 310 
0 0 1 0 0 0 1 0 1 0 72 
1 0 1 1 0 1 0 0 0 0 222 
0 0 0 0 1 0 1 1 0 1 223 
1 0 1 1 0 0 1 0 0 0 135 

GEN 20
FIT_MEAN 279
0 1 1 0 1 1 1 1 1 1 409 
0 1 1 0 1 1 1 1 1 1 409 
0 1 1 0 1 1 1 1 1 1 409 
0 1 1 0 1 1 1 1 1 0 380 
0 1 0 1 0 1 1 1 0 0 221 
0 1 1 1 1 1 0 0 1 1 310 
0 0 1 0 0 0 1 0 1 0 72 
1 0 1 1 0 1 0 0 0 0 222 
0 0 0 0 1 0 1 1 0 1 223 
1 0 1 1 0 0 1 0 0 0 135 

GEN 21
FIT_MEAN 280
0 1 1 0 1 1 1 1 1 1 409 
0 1 1 0 1 1 1 1 1 1 409 
0 1 1 0 1 1 1 1 1 1 409 
0 1 1 0 1 1 1 1 1 0 380 
0 1 0 1 0 1 0 1 0 0 217 
0 1 1 1 1 1 0 0 1 1 310 
0 0 1 0 0 0 1 0 1 0 72 
1 0 1 1 0 1 0 0 1 0 236 
0 0 0 0 1 0 1 1 0 1 223 
1 0 1 1 0 0 1 0 0 0 135 

GEN 22
FIT_MEAN 284.3
0 1 1 0 1 1 1 1 1 1 409 
0 1 1 0 1 1 1 1 1 1 409 
0 1 1 0 1 1 1 1 1 1 409 
0 1 1 0 1 1 1 1 1 0 380 
0 1 0 1 0 1 0 1 0 0 217 
0 1 1 1 1 1 0 0 1 1 310 
0 0 1 0 0 0 1 0 1 0 72 
1 0 0 1 0 1 0 0 1 0 182 
0 0 0 0 1 0 1 1 0 1 223 
1 0 1 1 0 0 1 1 0 0 232 

GEN 23
FIT_MEAN 301
0 1 1 0 1 1 1 1 1 1 409 
0 1 1 0 1 1 1 1 1 1 409 
0 1 1 0 1 1 1 1 1 1 409 
0 0 1 0 1 1 1 1 1 0 353 
0 1 0 1 0 1 0 1 0 0 217 
0 1 1 1 1 1 0 1 1 1 407 
0 0 1 0 0 0 1 1 1 0 169 
1 0 0 1 0 1 0 0 1 0 182 
0 0 0 0 1 0 1 1 0 1 223 
1 0 1 1 0 0 1 1 0 0 232 

GEN 24
FIT_MEAN 289
0 1 1 0 1 1 1 1 1 1 409 
0 1 1 0 1 1 1 1 1 1 409 
0 1 1 0 1 1 1 1 1 1 409 
0 0 1 0 1 0 1 1 1 0 262 
0 1 0 1 0 1 0 1 0 0 217 
0 1 1 1 1 1 0 1 1 1 407 
0 0 1 0 0 0 1 1 1 0 169 
1 0 0 1 0 1 0 0 1 0 182 
0 0 0 0 1 0 1 1 0 0 194 
1 0 1 1 0 0 1 1 0 0 232 

GEN 25
FIT_MEAN 280.1
0 1 1 0 1 1 1 1 1 1 409 
0 1 1 0 1 1 1 1 1 1 409 
0 1 1 0 1 1 1 1 1 1 409 
0 0 1 0 1 0 1 1 1 0 262 
0 1 0 1 0 1 0 1 0 0 217 
0 1 1 1 1 1 0 1 1 1 407 
0 0 1 0 0 0 1 1 1 0 169 
1 0 0 1 0 1 0 0 0 0 168 
0 0 0 0 1 0 1 1 0 0 194 
0 0 1 1 0 0 1 1 0 0 157 

GEN 26
FIT_MEAN 298.7
0 1 1 0 1 1 1 1 1 1 409 
0 1 1 0 1 1 1 1 1 1 409 
0 1 1 0 1 1 1 1 1 1 409 
0 0 1 0 1 1 1 1 1 0 353 
0 1 0 1 0 1 0 1 0 0 217 
0 1 1 1 1 1 0 1 1 1 407 
0 0 1 0 0 0 1 1 1 0 169 
1 0 0 1 0 1 1 0 0 0 172 
0 0 0 0 1 1 1 1 0 0 285 
0 0 1 1 0 0 1 1 0 0 157 

GEN 27
FIT_MEAN 298.7
0 1 1 0 1 1 1 1 1 1 409 
0 1 1 0 1 1 1 1 1 1 409 
0 1 1 0 1 1 1 1 1 1 409 
0 0 1 0 1 1 1 1 1 0 353 
0 1 0 1 0 1 0 1 0 0 217 
0 1 1 1 1 1 0 1 1 1 407 
0 0 1 0 0 0 1 1 1 0 169 
1 0 0 1 0 1 1 0 0 0 172 
0 0 0 0 1 1 1 1 0 0 285 
0 0 1 1 0 0 1 1 0 0 157 

GEN 28
FIT_MEAN 286.7
0 1 1 0 1 1 1 1 1 1 409 
0 1 1 0 1 1 1 1 1 1 409 
0 1 1 0 1 1 1 1 1 1 409 
0 0 1 0 1 1 1 1 1 0 353 
0 0 0 1 0 1 0 1 0 0 190 
0 1 1 1 1 1 0 1 1 1 407 
0 0 1 0 0 0 1 1 1 0 169 
1 0 0 1 0 1 1 0 0 0 172 
0 0 0 0 0 1 1 1 0 0 192 
0 0 1 1 0 0 1 1 0 0 157 

GEN 29
FIT_MEAN 286.7
0 1 1 0 1 1 1 1 1 1 409 
0 1 1 0 1 1 1 1 1 1 409 
0 1 1 0 1 1 1 1 1 1 409 
0 0 1 0 1 1 1 1 1 0 353 
0 0 0 1 0 1 0 1 0 0 190 
0 1 1 1 1 1 0 1 1 1 407 
0 0 1 0 0 0 1 1 1 0 169 
1 0 0 1 0 1 1 0 0 0 172 
0 0 0 0 0 1 1 1 0 0 192 
0 0 1 1 0 0 1 1 0 0 157 

GEN 30
FIT_MEAN 274.4
0 1 1 0 1 1 1 1 1 1 409 
0 1 1 0 1 1 1 1 1 1 409 
0 1 1 0 1 1 1 1 1 1 409 
0 0 1 0 1 1 1 1 1 0 353 
0 0 0 1 0 1 0 1 0 0 190 
0 0 1 1 1 1 0 1 1 1 380 
0 0 0 0 0 0 1 1 1 0 115 
1 0 0 0 0 1 1 0 0 0 170 
0 0 0 0 0 1 1 1 1 0 206 
0 0 0 1 0 0 1 1 0 0 103 

GEN 31
FIT_MEAN 274.6
0 1 1 0 1 1 1 1 1 1 409 
0 1 1 0 1 1 1 1 1 1 409 
0 1 1 0 1 1 1 1 1 1 409 
0 0 1 0 1 1 1 1 1 0 353 
0 0 0 1 0 1 0 1 0 0 190 
0 0 0 1 1 1 0 1 1 1 326 
0 1 0 0 0 0 1 1 1 0 142 
1 0 0 0 0 1 1 0 0 0 170 
0 0 0 0 0 1 1 1 1 0 206 
0 0 0 1 0 0 1 1 0 1 132 

GEN 32
FIT_MEAN 264.9
0 1 1 0 1 1 1 1 1 1 409 
0 1 1 0 1 1 1 1 1 1 409 
0 1 1 0 1 1 1 1 1 1 409 
0 0 1 0 1 1 1 0 1 0 256 
0 0 0 1 0 1 0 1 0 0 190 
0 0 0 1 1 1 0 1 1 1 326 
0 1 0 0 0 0 1 1 1 0 142 
1 0 0 0 0 1 1 0 0 0 170 
0 0 0 0 0 1 1 1 1 0 206 
0 0 0 1 0 0 1 1 0 1 132 

GEN 33
FIT_MEAN 270.3
0 1 1 0 1 1 1 1 1 1 409 
0 1 1 0 1 1 1 1 1 1 409 
0 1 1 0 1 1 1 1 1 1 409 
0 0 1 0 1 1 1 0 1 0 256 
0 0 0 1 0 1 0 1 0 0 190 
0 0 0 1 1 1 0 1 1 1 326 
0 1 1 0 0 0 1 1 1 0 196 
1 0 0 0 0 1 1 0 0 0 170 
0 0 0 0 0 1 1 1 1 0 206 
0 0 0 1 0 0 1 1 0 1 132 

GEN 34
FIT_MEAN 254.8
0 1 1 0 1 1 1 1 1 1 409 
0 1 1 0 1 1 1 1 1 1 409 
0 1 1 0 1 1 1 1 1 1 409 
0 0 1 0 1 1 1 0 0 0 242 
0 0 0 1 0 1 1 1 0 0 194 
0 0 0 1 1 1 0 1 1 1 326 
0 1 0 0 0 0 1 1 1 0 142 
1 0 0 0 0 1 1 0 0 0 170 
0 0 0 0 0 0 1 1 1 0 115 
0 0 0 1 0 0 1 1 0 1 132 

GEN 35
FIT_MEAN 257.7
0 1 1 0 1 1 1 1 1 1 409 
0 1 1 0 1 1 1 1 1 1 409 
0 1 1 0 1 1 1 1 1 1 409 
0 0 1 0 1 1 1 0 0 0 242 
0 0 0 1 0 1 1 1 0 1 223 
0 0 0 1 1 1 0 1 1 1 326 
0 1 0 0 0 0 1 1 1 0 142 
1 0 0 0 0 1 1 0 0 0 170 
0 0 0 0 0 0 1 1 1 0 115 
0 0 0 1 0 0 1 1 0 1 132 

GEN 36
FIT_MEAN 257.9
0 1 1 0 1 1 1 1 1 1 409 
0 1 1 0 1 1 1 1 1 1 409 
0 1 1 0 1 1 1 1 1 1 409 
0 0 1 0 1 1 1 0 0 0 242 
0 0 0 1 0 1 1 1 0 1 223 
0 0 0 1 1 1 0 1 1 1 326 
0 1 0 1 0 0 1 1 1 0 144 
1 0 0 0 0 1 1 0 0 0 170 
0 0 0 0 0 0 1 1 1 0 115 
0 0 0 1 0 0 1 1 0 1 132 

GEN 37
FIT_MEAN 264
0 1 1 0 1 1 1 1 1 1 409 
0 1 1 0 1 1 1 1 1 1 409 
0 1 1 0 1 1 1 1 1 1 409 
0 0 1 0 1 1 1 0 0 0 242 
0 0 0 1 0 1 1 1 0 1 223 
0 0 0 1 1 1 0 1 1 1 326 
0 1 0 1 0 0 1 1 0 0 130 
1 0 0 0 0 1 1 0 0 0 170 
1 0 0 0 0 0 1 1 1 0 190 
0 0 0 1 0 0 1 1 0 1 132 

GEN 38
FIT_MEAN 256.1
0 1 1 0 1 1 1 1 1 1 409 
0 1 1 0 1 1 1 1 1 1 409 
0 1 1 0 1 1 1 1 1 1 409 
0 0 1 0 1 1 1 0 0 0 242 
0 0 0 1 0 1 1 1 0 1 223 
0 0 0 1 1 1 0 1 1 0 297 
0 1 0 1 0 0 1 1 0 1 159 
0 0 0 0 0 1 1 0 0 0 95 
1 0 0 0 0 0 1 1 1 0 190 
0 0 0 1 0 0 0 1 0 1 128 

GEN 39
FIT_MEAN 260.7
0 1 1 0 1 1 1 1 1 1 409 
0 1 1 0 1 1 1 1 1 1 409 
0 1 1 0 1 1 1 1 1 1 409 
1 0 1 0 1 1 1 0 0 0 317 
0 0 0 1 0 1 1 1 0 0 194 
0 0 0 1 1 1 0 1 1 0 297 
0 1 0 1 0 0 1 1 0 1 159 
0 0 0 0 0 1 1 0 0 0 95 
1 0 0 0 0 0 1 1 1 0 190 
0 0 0 1 0 0 0 1 0 1 128 

GEN 40
FIT_MEAN 257
0 1 1 0 1 1 1 1 1 1 409 
0 1 1 0 1 1 1 1 1 1 409 
0 1 1 0 1 1 1 1 1 1 409 
1 0 1 0 1 1 1 0 0 0 317 
0 0 0 1 0 1 1 1 0 0 194 
0 0 0 1 1 1 0 1 1 0 297 
0 1 0 1 0 0 1 1 0 1 159 
0 0 0 0 0 0 1 0 0 0 4 
1 0 0 0 0 0 1 1 1 0 190 
0 0 1 1 0 0 0 1 0 1 182 

GEN 41
FIT_MEAN 257
0 1 1 0 1 1 1 1 1 1 409 
0 1 1 0 1 1 1 1 1 1 409 
0 1 1 0 1 1 1 1 1 1 409 
1 0 1 0 1 1 1 0 0 0 317 
0 0 0 1 0 1 1 1 0 0 194 
0 0 0 1 1 1 0 1 1 0 297 
0 1 0 1 0 0 1 1 0 1 159 
0 0 0 0 0 0 1 0 0 0 4 
1 0 0 0 0 0 1 1 1 0 190 
0 0 1 1 0 0 0 1 0 1 182 

GEN 42
FIT_MEAN 268.2
0 1 1 0 1 1 1 1 1 1 409 
0 1 1 0 1 1 1 1 1 1 409 
0 1 1 0 1 1 1 1 1 1 409 
1 0 1 0 1 1 1 0 0 0 317 
0 0 0 0 0 1 1 1 0 0 192 
0 1 0 1 1 1 0 1 1 0 324 
0 1 0 1 0 0 1 1 0 1 159 
0 0 0 0 0 0 1 0 0 0 4 
1 0 0 0 0 0 0 1 1 0 186 
0 0 1 1 0 1 0 1 0 1 273 

GEN 43
FIT_MEAN 258.9
0 1 1 0 1 1 1 1 1 1 409 
0 1 1 0 1 1 1 1 1 1 409 
0 1 1 0 1 1 1 1 1 1 409 
1 0 1 0 1 1 1 0 0 0 317 
0 0 0 0 0 1 1 1 0 0 192 
0 1 0 1 0 1 0 1 1 0 231 
0 1 0 1 0 0 1 1 0 1 159 
0 0 0 0 0 0 1 0 0 0 4 
1 0 0 0 0 0 0 1 1 0 186 
0 0 1 1 0 1 0 1 0 1 273 

GEN 44
FIT_MEAN 268.7
0 1 1 0 1 1 1 1 1 1 409 
0 1 1 0 1 1 1 1 1 1 409 
0 1 1 0 1 1 1 1 1 1 409 
1 0 1 0 1 1 0 0 0 0 313 
0 0 0 0 0 1 1 1 0 0 192 
0 1 0 1 0 1 0 1 1 0 231 
1 1 0 1 0 0 1 1 0 1 234 
0 0 0 0 0 0 1 0 0 0 4 
1 1 0 0 0 0 0 1 1 0 213 
0 0 1 1 0 1 0 1 0 1 273 

GEN 45
FIT_MEAN 280.5
0 1 1 0 1 1 1 1 1 1 409 
0 1 1 0 1 1 1 1 1 1 409 
0 1 1 0 1 1 1 1 1 1 409 
1 1 1 0 1 1 0 0 0 0 340 
0 0 0 0 0 1 1 1 0 0 192 
0 1 0 1 0 1 0 1 1 0 231 
1 1 0 1 0 0 1 1 0 1 234 
0 0 0 0 0 0 1 0 0 0 4 
1 1 0 0 0 1 0 1 1 0 304 
0 0 1 1 0 1 0 1 0 1 273 

GEN 46
FIT_MEAN 280.1
0 1 1 0 1 1 1 1 1 1 409 
0 1 1 0 1 1 1 1 1 1 409 
0 1 1 0 1 1 1 1 1 1 409 
1 1 1 0 1 1 0 0 0 0 340 
0 0 0 0 0 1 1 1 0 0 192 
0 1 0 1 0 1 0 1 1 0 231 
1 1 0 1 0 0 0 1 0 1 230 
0 0 0 0 0 0 1 0 0 0 4 
1 1 0 0 0 1 0 1 1 0 304 
0 0 1 1 0 1 0 1 0 1 273 

GEN 47
FIT_MEAN 261.3
0 1 1 0 1 1 1 1 1 1 409 
0 1 1 0 1 1 1 1 1 1 409 
0 1 1 0 1 1 1 1 1 1 409 
1 1 1 0 1 1 0 0 0 0 340 
0 0 0 0 0 1 1 1 0 0 192 
0 1 0 1 0 0 0 1 1 0 140 
1 1 0 1 0 0 0 0 0 1 133 
0 0 0 0 0 0 1 0 0 0 4 
1 1 0 0 0 1 0 1 1 0 304 
0 0 1 1 0 1 0 1 0 1 273 

GEN 48
FIT_MEAN 264
0 1 1 0 1 1 1 1 1 1 409 
0 1 1 0 1 1 1 1 1 1 409 
0 1 1 0 1 1 1 1 1 1 409 
1 1 1 0 1 1 0 0 0 0 340 
0 1 0 0 0 1 1 1 0 0 219 
0 1 0 1 0 0 0 1 0 0 126 
1 1 0 1 0 0 0 0 0 1 133 
0 0 0 0 0 0 1 0 0 0 4 
1 1 0 0 0 1 0 1 1 0 304 
0 0 1 1 0 1 0 1 1 1 287 

GEN 49
FIT_MEAN 273.1
0 1 1 0 1 1 1 1 1 1 409 
0 1 1 0 1 1 1 1 1 1 409 
0 1 1 0 1 1 1 1 1 1 409 
1 1 1 0 1 1 0 0 0 0 340 
0 1 0 0 0 1 1 1 0 0 219 
0 1 0 1 0 1 0 1 0 0 217 
1 1 0 1 0 0 0 0 0 1 133 
0 0 0 0 0 0 1 0 0 0 4 
1 1 0 0 0 1 0 1 1 0 304 
0 0 1 1 0 1 0 1 1 1 287 

GEN 50
FIT_MEAN 285.7
0 1 1 0 1 1 1 1 1 1 409 
0 1 1 0 1 1 1 1 1 1 409 
0 1 1 0 1 1 1 1 1 1 409 
1 1 1 0 1 1 0 0 0 0 340 
0 1 0 0 0 1 1 1 0 1 248 
0 1 0 1 0 1 0 1 0 0 217 
1 1 0 1 0 0 0 0 0 1 133 
0 0 0 0 0 0 1 1 0 0 101 
1 1 0 0 0 1 0 1 1 0 304 
0 0 1 1 0 1 0 1 1 1 287 

GEN 51
FIT_MEAN 304.3
0 1 1 0 1 1 1 1 1 1 409 
0 1 1 0 1 1 1 1 1 1 409 
0 1 1 0 1 1 1 1 1 1 409 
1 1 1 0 1 1 0 0 0 0 340 
0 1 0 0 0 1 1 1 0 1 248 
0 1 0 1 0 1 0 1 0 0 217 
1 1 0 1 0 0 0 0 0 1 133 
0 0 0 0 0 0 1 1 0 0 101 
1 1 0 0 1 1 0 1 1 0 397 
0 0 1 1 1 1 0 1 1 1 380 

GEN 52
FIT_MEAN 307.2
0 1 1 0 1 1 1 1 1 1 409 
0 1 1 0 1 1 1 1 1 1 409 
0 1 1 0 1 1 1 1 1 1 409 
1 1 1 0 1 1 0 0 0 0 340 
0 1 0 0 0 1 1 1 0 1 248 
0 1 0 1 0 1 0 1 0 0 217 
1 1 0 1 0 0 0 0 0 1 133 
0 0 0 1 0 0 1 1 0 0 103 
1 1 0 0 1 1 0 1 1 0 397 
0 1 1 1 1 1 0 1 1 1 407 

GEN 53
FIT_MEAN 295.2
0 1 1 0 1 1 1 1 1 1 409 
0 1 1 0 1 1 1 1 1 1 409 
0 1 1 0 1 1 1 1 1 1 409 
1 1 1 0 0 1 0 0 0 0 247 
0 0 0 0 0 1 1 1 0 1 221 
0 1 0 1 0 1 0 1 0 0 217 
1 1 0 1 0 0 0 0 0 1 133 
0 0 0 1 0 0 1 1 0 0 103 
1 1 0 0 1 1 0 1 1 0 397 
0 1 1 1 1 1 0 1 1 1 407 

GEN 54
FIT_MEAN 295
0 1 1 0 1 1 1 1 1 1 409 
0 1 1 0 1 1 1 1 1 1 409 
0 1 1 0 1 1 1 1 1 1 409 
1 1 1 0 0 1 0 0 0 0 247 
0 0 0 0 0 1 1 1 0 1 221 
0 1 0 1 0 1 0 1 0 0 217 
1 1 0 0 0 0 0 0 0 1 131 
0 0 0 1 0 0 1 1 0 0 103 
1 1 0 0 1 1 0 1 1 0 397 
0 1 1 1 1 1 0 1 1 1 407 

GEN 55
FIT_MEAN 304.3
0 1 1 0 1 1 1 1 1 1 409 
0 1 1 0 1 1 1 1 1 1 409 
0 1 1 0 1 1 1 1 1 1 409 
1 1 1 0 0 1 0 0 0 0 247 
0 0 0 0 0 1 1 1 0 1 221 
0 1 0 1 1 1 0 1 0 0 310 
1 1 0 0 0 0 0 0 0 1 131 
0 0 0 1 0 0 1 1 0 0 103 
1 1 0 0 1 1 0 1 1 0 397 
0 1 1 1 1 1 0 1 1 1 407 

GEN 56
FIT_MEAN 304.1
0 1 1 0 1 1 1 1 1 1 409 
0 1 1 0 1 1 1 1 1 1 409 
0 1 1 0 1 1 1 1 1 1 409 
1 1 1 0 0 1 0 0 0 0 247 
0 0 0 0 0 1 1 1 0 1 221 
0 1 0 0 1 1 0 1 0 0 308 
1 1 0 0 0 0 0 0 0 1 131 
0 0 0 1 0 0 1 1 0 0 103 
1 1 0 0 1 1 0 1 1 0 397 
0 1 1 1 1 1 0 1 1 1 407 

GEN 57
FIT_MEAN 298.9
0 1 1 0 1 1 1 1 1 1 409 
0 1 1 0 1 1 1 1 1 1 409 
0 1 1 0 1 1 1 1 1 1 409 
1 1 1 0 0 1 0 0 0 0 247 
0 0 0 0 0 1 1 1 0 1 221 
0 1 0 0 1 1 0 1 1 0 322 
1 1 0 0 0 0 0 0 0 1 131 
0 1 0 1 0 0 1 1 0 0 130 
1 1 0 0 1 1 1 1 1 0 401 
0 1 1 1 1 1 0 0 1 1 310 

GEN 58
FIT_MEAN 300.3
0 1 1 0 1 1 1 1 1 1 409 
0 1 1 0 1 1 1 1 1 1 409 
0 1 1 0 1 1 1 1 1 1 409 
1 1 1 0 0 1 0 0 1 0 261 
0 0 0 0 0 1 1 1 0 1 221 
0 1 0 0 1 1 0 1 1 0 322 
1 1 0 0 0 0 0 0 0 1 131 
0 1 0 1 0 0 1 1 0 0 130 
1 1 0 0 1 1 1 1 1 0 401 
0 1 1 1 1 1 0 0 1 1 310 

GEN 59
FIT_MEAN 302.4
0 1 1 0 1 1 1 1 1 1 409 
0 1 1 0 1 1 1 1 1 1 409 
0 1 1 0 1 1 1 1 1 1 409 
1 1 1 0 0 1 0 0 1 0 261 
1 0 0 0 0 1 1 1 0 1 296 
0 1 0 0 1 1 0 1 1 0 322 
1 1 0 0 0 0 0 0 0 1 131 
0 1 0 1 0 0 1 1 0 0 130 
1 1 0 0 1 1 1 1 1 0 401 
0 1 0 1 1 1 0 0 1 1 256 

GEN 60
FIT_MEAN 311.1
0 1 1 0 1 1 1 1 1 1 409 
0 1 1 0 1 1 1 1 1 1 409 
0 1 1 0 1 1 1 1 1 1 409 
1 1 1 0 0 1 0 0 1 0 261 
1 0 0 0 0 1 0 1 0 1 292 
0 1 0 0 1 1 0 1 1 0 322 
1 1 0 0 0 0 0 0 0 1 131 
0 1 0 1 1 0 1 1 0 0 223 
1 1 0 0 1 1 1 1 1 0 401 
0 1 0 0 1 1 0 0 1 1 254 

GEN 61
FIT_MEAN 309.3
0 1 1 0 1 1 1 1 1 1 409 
0 1 1 0 1 1 1 1 1 1 409 
0 1 1 0 1 1 1 1 1 1 409 
1 1 1 0 0 1 0 0 0 0 247 
1 0 0 0 0 1 0 1 0 1 292 
0 1 0 0 1 1 0 1 1 0 322 
1 1 0 0 0 0 0 0 0 1 131 
0 1 0 1 1 0 0 1 0 0 219 
1 1 0 0 1 1 1 1 1 0 401 
0 1 0 0 1 1 0 0 1 1 254 

GEN 62
FIT_MEAN 303.5
0 1 1 0 1 1 1 1 1 1 409 
0 1 1 0 1 1 1 1 1 1 409 
0 1 1 0 1 1 1 1 1 1 409 
1 1 1 0 0 1 0 0 0 0 247 
1 0 0 0 0 1 0 1 0 0 263 
0 1 0 0 1 1 0 1 1 0 322 
1 1 0 0 0 0 0 0 0 1 131 
0 1 0 0 1 0 0 1 0 0 217 
1 1 0 0 1 1 1 1 1 0 401 
0 0 0 0 1 1 0 0 1 1 227 

GEN 63
FIT_MEAN 318.6
0 1 1 0 1 1 1 1 1 1 409 
0 1 1 0 1 1 1 1 1 1 409 
0 1 1 0 1 1 1 1 1 1 409 
1 1 1 0 0 1 0 0 0 0 247 
1 0 1 0 0 1 0 1 0 0 317 
0 1 0 0 1 1 0 1 1 0 322 
1 1 0 0 0 0 0 1 0 1 228 
0 1 0 0 1 0 0 1 0 0 217 
1 1 0 0 1 1 1 1 1 0 401 
0 0 0 0 1 1 0 0 1 1 227 

GEN 64
FIT_MEAN 317.8
0 1 1 0 1 1 1 1 1 1 409 
0 1 1 0 1 1 1 1 1 1 409 
0 1 1 0 1 1 1 1 1 1 409 
1 1 1 0 0 1 0 0 0 1 276 
1 0 1 0 0 1 0 1 0 0 317 
0 1 0 0 1 1 0 1 1 0 322 
1 1 0 0 0 0 0 1 0 1 228 
0 1 1 0 1 0 0 1 0 0 271 
1 1 0 0 1 1 1 1 1 0 401 
0 0 0 0 1 0 0 0 1 1 136 

GEN 65
FIT_MEAN 324.4
0 1 1 0 1 1 1 1 1 1 409 
0 1 1 0 1 1 1 1 1 1 409 
0 1 1 0 1 1 1 1 1 1 409 
1 1 1 0 0 1 0 0 0 1 276 
1 0 1 0 0 1 0 1 0 0 317 
0 1 0 0 1 1 0 1 1 0 322 
1 1 0 0 1 0 0 1 0 1 321 
0 0 1 0 1 0 0 1 0 0 244 
1 1 0 0 1 1 1 1 1 0 401 
0 0 0 0 1 0 0 0 1 1 136 

GEN 66
FIT_MEAN 324.4
0 1 1 0 1 1 1 1 1 1 409 
0 1 1 0 1 1 1 1 1 1 409 
0 1 1 0 1 1 1 1 1 1 409 
1 1 1 0 0 1 0 0 0 1 276 
1 0 1 0 0 1 0 1 0 0 317 
0 1 0 0 1 1 0 1 1 0 322 
1 1 0 0 1 0 0 1 0 1 321 
0 0 1 0 1 0 0 1 0 0 244 
1 1 0 0 1 1 1 1 1 0 401 
0 0 0 0 1 0 0 0 1 1 136 

GEN 67
FIT_MEAN 325.2
0 1 1 0 1 1 1 1 1 1 409 
0 1 1 0 1 1 1 1 1 1 409 
0 1 1 0 1 1 1 1 1 1 409 
1 1 1 0 0 1 0 0 0 1 276 
1 0 1 0 0 1 0 1 0 0 317 
0 1 0 0 1 1 1 1 1 0 326 
1 1 0 0 1 0 1 1 0 1 325 
0 0 1 0 1 0 0 1 0 0 244 
1 1 0 0 1 1 1 1 1 0 401 
0 0 0 0 1 0 0 0 1 1 136 

GEN 68
FIT_MEAN 327.4
0 1 1 0 1 1 1 1 1 1 409 
0 1 1 0 1 1 1 1 1 1 409 
0 1 1 0 1 1 1 1 1 1 409 
1 1 1 0 0 1 0 0 0 1 276 
1 0 1 0 0 1 0 1 0 0 317 
0 1 0 0 1 1 1 1 1 0 326 
1 1 0 0 1 0 1 1 0 1 325 
0 0 1 0 1 0 0 1 0 0 244 
0 1 0 0 1 1 1 1 1 0 326 
0 0 0 0 1 0 0 1 1 1 233 

GEN 69
FIT_MEAN 328
0 1 1 0 1 1 1 1 1 1 409 
0 1 1 0 1 1 1 1 1 1 409 
0 1 1 0 1 1 1 1 1 1 409 
1 1 1 0 0 1 0 0 0 1 276 
1 0 1 0 0 1 0 1 0 0 317 
0 1 0 1 1 1 1 1 1 0 328 
1 1 0 0 1 0 1 1 0 1 325 
0 0 1 0 1 0 0 1 0 0 244 
0 1 0 0 1 1 1 1 1 0 326 
0 0 0 0 1 0 1 1 1 1 237 

GEN 70
FIT_MEAN 324.1
0 1 1 0 1 1 1 1 1 1 409 
0 1 1 0 1 1 1 1 1 1 409 
0 1 1 0 1 1 1 1 1 1 409 
1 1 1 0 0 1 0 0 0 1 276 
1 0 1 0 0 1 0 1 0 0 317 
0 1 0 1 1 1 1 1 1 0 328 
1 1 1 0 1 0 1 1 0 1 379 
0 0 1 0 0 0 0 1 0 0 151 
0 1 0 0 1 1 1 1 1 0 326 
0 0 0 0 1 0 1 1 1 1 237 

GEN 71
FIT_MEAN 329.5
0 1 1 0 1 1 1 1 1 1 409 
0 1 1 0 1 1 1 1 1 1 409 
0 1 1 0 1 1 1 1 1 1 409 
1 1 1 0 0 1 0 0 0 1 276 
1 0 1 0 0 1 0 1 0 0 317 
0 1 1 1 1 1 1 1 1 0 382 
1 1 1 0 1 0 1 1 0 1 379 
0 0 0 0 0 0 0 1 0 0 97 
0 1 0 0 1 1 1 1 1 0 326 
0 0 1 0 1 0 1 1 1 1 291 

GEN 72
FIT_MEAN 338.6
0 1 1 0 1 1 1 1 1 1 409 
0 1 1 0 1 1 1 1 1 1 409 
0 1 1 0 1 1 1 1 1 1 409 
1 1 1 0 0 1 0 0 0 1 276 
1 0 1 0 0 1 0 1 0 0 317 
0 1 1 1 1 1 1 1 1 0 382 
1 1 1 0 1 0 1 1 0 1 379 
0 0 0 0 0 0 0 1 0 0 97 
0 1 0 0 1 1 1 1 1 0 326 
0 0 1 0 1 1 1 1 1 1 382 

GEN 73
FIT_MEAN 329.5
0 1 1 0 1 1 1 1 1 1 409 
0 1 1 0 1 1 1 1 1 1 409 
0 1 1 0 1 1 1 1 1 1 409 
1 1 1 0 0 1 0 0 0 1 276 
1 0 1 0 0 0 0 1 0 0 226 
0 1 1 1 1 1 1 1 1 0 382 
1 1 1 0 1 0 1 1 0 1 379 
0 0 0 0 0 0 0 1 0 0 97 
0 1 0 0 1 1 1 1 1 0 326 
0 0 1 0 1 1 1 1 1 1 382 

GEN 74
FIT_MEAN 319.5
0 1 1 0 1 1 1 1 1 1 409 
0 1 1 0 1 1 1 1 1 1 409 
0 1 1 0 1 1 1 1 1 1 409 
1 1 1 0 0 1 0 0 0 1 276 
0 0 1 0 0 0 0 1 0 0 151 
0 1 1 1 1 1 1 1 1 0 382 
1 1 1 0 1 0 1 1 0 0 350 
0 0 0 0 0 0 1 1 0 0 101 
0 1 0 0 1 1 1 1 1 0 326 
0 0 1 0 1 1 1 1 1 1 382 

GEN 75
FIT_MEAN 307.1
0 1 1 0 1 1 1 1 1 1 409 
0 1 1 0 1 1 1 1 1 1 409 
0 1 1 0 1 1 1 1 1 1 409 
1 1 1 0 0 1 0 0 0 0 247 
0 0 1 0 0 0 0 1 0 0 151 
0 1 1 1 1 1 0 1 1 0 378 
1 1 1 0 1 0 1 1 0 0 350 
0 0 0 0 0 0 1 1 0 0 101 
0 1 0 0 1 1 1 1 1 0 326 
0 0 1 0 1 0 1 1 1 1 291 

GEN 76
FIT_MEAN 316.4
0 1 1 0 1 1 1 1 1 1 409 
0 1 1 0 1 1 1 1 1 1 409 
0 1 1 0 1 1 1 1 1 1 409 
1 1 1 0 1 1 0 0 0 0 340 
0 0 1 0 0 0 0 1 1 0 165 
0 1 1 1 1 1 0 1 1 0 378 
1 1 1 0 1 0 1 1 0 0 350 
0 0 0 0 0 0 1 1 0 0 101 
0 1 0 0 1 1 1 1 0 0 312 
0 0 1 0 1 0 1 1 1 1 291 

GEN 77
FIT_MEAN 316.4
0 1 1 0 1 1 1 1 1 1 409 
0 1 1 0 1 1 1 1 1 1 409 
0 1 1 0 1 1 1 1 1 1 409 
1 1 1 0 1 1 0 0 0 1 369 
0 0 1 0 0 0 0 1 1 0 165 
0 1 1 1 1 1 0 1 1 0 378 
1 1 1 0 1 0 1 1 0 0 350 
0 0 0 0 0 0 1 1 0 0 101 
0 1 0 0 1 1 1 1 0 0 312 
0 0 1 0 1 0 1 1 1 0 262 

GEN 78
FIT_MEAN 319.3
0 1 1 0 1 1 1 1 1 1 409 
0 1 1 0 1 1 1 1 1 1 409 
0 1 1 0 1 1 1 1 1 1 409 
1 1 1 0 1 1 0 0 0 1 369 
0 0 1 0 0 0 0 1 1 1 194 
0 1 1 1 1 1 0 1 1 0 378 
1 1 1 0 1 0 1 1 0 0 350 
0 0 0 0 0 0 1 1 0 0 101 
0 1 0 0 1 1 1 1 0 0 312 
0 0 1 0 1 0 1 1 1 0 262 

GEN 79
FIT_MEAN 336.7
0 1 1 0 1 1 1 1 1 1 409 
0 1 1 0 1 1 1 1 1 1 409 
0 1 1 0 1 1 1 1 1 1 409 
1 1 1 0 1 1 0 1 0 1 466 
0 0 1 0 0 0 0 1 1 1 194 
0 0 1 1 1 1 0 1 1 0 351 
1 1 1 0 1 0 1 1 0 1 379 
0 0 0 0 0 0 1 1 0 0 101 
0 1 0 0 1 1 1 1 0 0 312 
1 0 1 0 1 0 1 1 1 0 337 

GEN 80
FIT_MEAN 342.4
1 1 1 0 1 1 0 1 0 1 466 
0 1 1 0 1 1 1 1 1 1 409 
0 1 1 0 1 1 1 1 1 1 409 
1 1 1 0 1 1 0 1 0 1 466 
0 0 1 0 0 0 0 1 1 1 194 
0 0 1 1 1 1 0 1 1 0 351 
1 1 1 0 1 0 1 1 0 1 379 
0 0 0 0 0 0 1 1 0 0 101 
0 1 0 0 1 1 1 1 0 0 312 
1 0 1 0 1 0 1 1 1 0 337 

GEN 81
FIT_MEAN 345.4
1 1 1 0 1 1 0 1 0 1 466 
1 1 1 0 1 1 0 1 0 1 466 
0 1 1 0 1 1 1 1 1 1 409 
1 1 1 0 1 1 0 1 0 1 466 
0 0 1 0 0 0 0 1 1 1 194 
0 0 1 1 1 1 0 1 1 0 351 
1 1 1 0 1 0 1 1 0 1 379 
0 0 0 0 0 0 1 1 0 0 101 
0 0 0 0 1 1 1 1 0 0 285 
1 0 1 0 1 0 1 1 1 0 337 

GEN 82
FIT_MEAN 363.3
1 1 1 0 1 1 0 1 0 1 466 
1 1 1 0 1 1 0 1 0 1 466 
1 1 1 0 1 1 0 1 0 1 466 
1 1 1 0 1 1 0 1 0 1 466 
0 0 1 0 1 0 0 1 1 1 287 
0 0 1 1 1 1 0 1 1 0 351 
1 1 1 0 1 0 1 1 0 1 379 
0 0 0 0 0 0 1 1 0 0 101 
0 0 0 0 1 1 1 1 0 0 285 
1 0 1 0 1 0 1 1 1 1 366 

GEN 83
FIT_MEAN 352.9
1 1 1 0 1 1 0 1 0 1 466 
1 1 1 0 1 1 0 1 0 1 466 
1 1 1 0 1 1 0 1 0 1 466 
1 1 1 0 1 1 0 1 0 1 466 
0 0 1 0 1 0 0 1 1 0 258 
0 0 1 1 1 1 0 1 1 0 351 
0 1 1 0 1 0 1 1 0 1 304 
0 0 0 0 0 0 1 1 0 0 101 
0 0 0 0 1 1 1 1 0 0 285 
1 0 1 0 1 0 1 1 1 1 366 

GEN 84
FIT_MEAN 352.7
1 1 1 0 1 1 0 1 0 1 466 
1 1 1 0 1 1 0 1 0 1 466 
1 1 1 0 1 1 0 1 0 1 466 
1 1 1 0 1 1 0 1 0 1 466 
0 0 1 0 1 0 0 1 1 0 258 
0 0 1 1 1 1 0 1 1 0 351 
0 1 1 0 1 0 1 1 0 1 304 
0 0 0 1 0 0 1 1 0 0 103 
0 0 0 0 1 1 0 1 0 0 281 
1 0 1 0 1 0 1 1 1 1 366 

GEN 85
FIT_MEAN 352.9
1 1 1 0 1 1 0 1 0 1 466 
1 1 1 0 1 1 0 1 0 1 466 
1 1 1 0 1 1 0 1 0 1 466 
1 1 1 0 1 1 0 1 0 1 466 
0 0 1 0 1 0 0 1 1 0 258 
0 0 1 1 1 1 0 1 1 0 351 
0 1 1 0 1 0 1 1 0 1 304 
0 0 0 1 0 0 1 1 0 0 103 
0 0 0 1 1 1 0 1 0 0 283 
1 0 1 0 1 0 1 1 1 1 366 

GEN 86
FIT_MEAN 345
1 1 1 0 1 1 0 1 0 1 466 
1 1 1 0 1 1 0 1 0 1 466 
1 1 1 0 1 1 0 1 0 1 466 
1 1 1 0 1 1 1 1 0 1 470 
0 0 1 0 1 0 0 1 1 0 258 
0 0 1 1 1 1 0 1 1 0 351 
0 1 1 0 1 0 1 1 0 1 304 
0 0 0 1 0 0 1 1 1 0 117 
0 0 0 1 1 1 0 1 0 0 283 
1 0 1 0 1 0 1 0 1 1 269 

GEN 87
FIT_MEAN 355.9
1 1 1 0 1 1 1 1 0 1 470 
1 1 1 0 1 1 0 1 0 1 466 
1 1 1 0 1 1 0 1 0 1 466 
1 1 1 0 1 1 1 1 0 1 470 
0 0 1 0 1 0 0 1 1 0 258 
0 0 1 1 1 1 0 1 1 0 351 
0 1 1 0 1 1 1 1 0 1 395 
0 0 0 1 0 0 1 1 1 0 117 
0 0 0 1 1 1 0 1 1 0 297 
1 0 1 0 1 0 1 0 1 1 269 

GEN 88
FIT_MEAN 346.6
1 1 1 0 1 1 1 1 0 1 470 
1 1 1 0 1 1 1 1 0 1 470 
1 1 1 0 1 1 0 1 0 1 466 
1 1 1 0 1 1 1 0 0 1 373 
0 0 1 0 1 0 0 1 1 0 258 
0 0 1 1 1 1 0 1 1 0 351 
0 1 1 0 1 1 1 1 0 1 395 
0 0 0 1 0 0 1 1 1 0 117 
0 0 0 1 1 1 0 1 1 0 297 
1 0 1 0 1 0 1 0 1 1 269 

GEN 89
FIT_MEAN 357
1 1 1 0 1 1 1 1 0 1 470 
1 1 1 0 1 1 1 1 0 1 470 
1 1 1 0 1 1 0 1 0 1 466 
1 1 1 0 1 1 1 0 0 1 373 
0 0 1 0 1 0 0 1 1 1 287 
0 0 1 1 1 1 0 1 1 0 351 
0 1 1 0 1 1 1 1 0 1 395 
0 0 0 1 0 0 1 1 1 0 117 
1 0 0 1 1 1 0 1 1 0 372 
1 0 1 0 1 0 1 0 1 1 269 

GEN 90
FIT_MEAN 353.9
1 1 1 0 1 1 1 1 0 1 470 
1 1 1 0 1 1 1 1 0 1 470 
1 1 1 0 1 1 0 1 0 1 466 
1 1 1 0 1 1 1 0 0 0 344 
0 0 1 0 0 0 0 1 1 1 194 
0 0 1 1 1 1 0 1 1 0 351 
0 1 1 0 1 1 1 1 0 1 395 
0 0 0 1 0 0 1 1 1 0 117 
1 0 0 1 1 1 0 1 1 0 372 
1 0 1 0 1 1 1 0 1 1 360 

GEN 91
FIT_MEAN 352.9
1 1 1 0 1 1 1 1 0 1 470 
1 1 1 0 1 1 1 1 0 1 470 
1 1 1 0 1 1 0 1 0 1 466 
1 1 1 0 1 0 1 0 0 0 253 
0 1 1 0 0 0 0 1 1 1 221 
0 0 1 1 1 1 0 1 1 0 351 
0 1 1 0 1 1 1 1 0 1 395 
0 0 0 1 0 0 1 1 1 0 117 
1 0 1 1 1 1 0 1 1 0 426 
1 0 1 0 1 1 1 0 1 1 360 

GEN 92
FIT_MEAN 354.2
1 1 1 0 1 1 1 1 0 1 470 
1 1 1 0 1 1 1 1 0 1 470 
1 1 1 0 1 1 0 1 0 1 466 
1 1 1 0 1 0 1 0 0 0 253 
0 1 1 1 0 0 0 1 1 1 223 
1 0 1 1 1 1 0 1 1 0 426 
0 1 1 0 1 1 1 1 0 1 395 
0 1 0 1 0 0 1 1 1 0 144 
1 0 1 1 1 0 0 1 1 0 335 
1 0 1 0 1 1 1 0 1 1 360 

GEN 93
FIT_MEAN 333.4
1 1 1 0 1 1 1 1 0 1 470 
1 1 1 0 1 1 1 1 0 1 470 
1 1 1 0 1 1 0 1 0 1 466 
1 1 1 0 1 0 1 0 0 0 253 
0 1 1 1 0 0 0 0 1 1 126 
1 0 1 1 1 1 0 1 1 0 426 
0 1 1 0 1 1 1 0 0 1 298 
0 1 0 1 0 0 1 1 1 0 144 
1 0 1 1 1 0 0 1 1 0 335 
1 0 1 0 1 1 1 0 0 1 346 

GEN 94
FIT_MEAN 329.6
1 1 1 0 1 1 1 1 0 1 470 
1 1 1 0 1 1 1 1 0 1 470 
1 1 1 0 1 1 0 1 0 1 466 
1 1 1 0 1 0 1 0 0 0 253 
0 1 0 1 0 0 0 0 1 1 72 
1 0 1 1 1 1 0 1 1 0 426 
0 1 1 1 1 1 1 0 0 1 300 
0 1 0 1 0 0 1 1 1 0 144 
1 0 1 1 1 0 0 1 1 0 335 
1 0 1 0 1 1 1 0 1 1 360 

GEN 95
FIT_MEAN 328.3
1 1 1 0 1 1 1 1 0 1 470 
1 1 1 0 1 1 1 1 0 1 470 
1 1 1 0 1 1 0 1 0 1 466 
1 1 1 0 1 0 1 0 1 0 267 
0 0 0 1 0 0 0 0 1 1 45 
1 0 1 1 1 1 0 1 1 0 426 
0 1 1 1 1 1 1 0 0 1 300 
0 1 0 1 0 0 1 1 1 0 144 
1 0 1 1 1 0 0 1 1 0 335 
1 0 1 0 1 1 1 0 1 1 360 

GEN 96
FIT_MEAN 340.1
1 1 1 0 1 1 1 1 0 1 470 
1 1 1 0 1 1 1 1 0 1 470 
1 1 1 0 1 1 0 1 0 1 466 
1 1 1 0 1 1 1 0 1 0 358 
0 0 0 1 0 0 0 0 1 1 45 
1 0 1 1 1 1 0 1 1 0 426 
0 1 1 1 1 1 1 0 0 1 300 
0 1 0 1 0 0 1 1 1 0 144 
1 0 1 1 1 0 0 1 1 0 335 
1 1 1 0 1 1 1 0 1 1 387 

GEN 97
FIT_MEAN 349.2
1 1 1 0 1 1 1 1 0 1 470 
1 1 1 0 1 1 1 1 0 1 470 
1 1 1 0 1 1 0 1 0 1 466 
1 1 1 0 1 1 1 0 1 0 358 
0 0 0 1 0 0 0 0 1 1 45 
1 0 1 1 1 1 0 1 1 0 426 
0 1 1 1 1 1 1 0 0 1 300 
0 1 0 1 0 1 1 1 1 0 235 
1 0 1 1 1 0 0 1 1 0 335 
1 1 1 0 1 1 1 0 1 1 387 

GEN 98
FIT_MEAN 342
1 1 1 0 1 1 1 1 0 1 470 
1 1 1 0 1 1 1 1 0 1 470 
1 1 1 0 1 1 0 1 0 1 466 
1 1 1 0 1 1 1 0 1 0 358 
0 0 1 1 0 0 0 0 1 1 99 
1 0 1 1 1 1 0 1 1 0 426 
0 1 1 1 1 1 1 0 0 0 271 
0 1 0 1 0 1 1 1 1 0 235 
1 0 1 1 1 0 0 0 1 0 238 
1 1 1 0 1 1 1 0 1 1 387 

GEN 99
FIT_MEAN 340.2
1 1 1 0 1 1 1 1 0 1 470 
1 1 1 0 1 1 1 1 0 1 470 
1 1 1 0 1 1 0 1 0 1 466 
1 1 1 0 1 1 1 0 1 0 358 
1 0 1 1 0 0 0 0 1 1 174 
1 0 1 1 0 1 0 1 1 0 333 
0 1 1 1 1 1 1 0 0 0 271 
0 1 0 1 0 1 1 1 1 0 235 
1 0 1 1 1 0 0 0 1 0 238 
1 1 1 0 1 1 1 0 1 1 387 

